100 500

73 1
37 44
79 44
43 5
35 44
24 15
69 15
14 2
54 9
19 11
63 25
71 42
67 17
45 14
24 40
43 45
100 11
71 29
11 24
96 20
30 12
60 39
37 16
91 27
35 49
77 14
70 42
20 30
17 49
96 34
24 2
13 17
24 46
76 30
64 7
49 12
14 42
12 7
97 47
30 24
62 13
84 7
96 41
91 20
70 11
34 47
98 16
43 32
38 34
43 31
44 17
70 39
79 2
57 27
24 8
65 6
78 6
63 10
100 46
26 47
89 15
24 17
46 1
20 36
80 45
89 20
91 36
34 36
72 10
34 15
61 9
87 18
31 9
38 4
89 38
57 17
22 21
17 8
84 44
55 14
90 31
68 35
49 7
72 32
59 10
98 32
10 30
16 6
37 38
62 41
23 28
14 23
43 24
50 39
11 31
18 22
63 29
52 21
30 16
44 20
